\ Model 模型1: 固定风险，优化收益
\ LP format - for model browsing. Use MPS format to capture full model detail.
Maximize
  0.05 x_0 + 0.27 x_1 + 0.19 x_2 + 0.185 x_3 + 0.185 x_4
Subject To
 Cons_1: x_0 + 1.01 x_1 + 1.02 x_2 + 1.045 x_3 + 1.065 x_4 = 10000
Bounds
End
